11
2147483647 78 40 46 70 55 75 5 83 70 31 
78 2147483647 16 38 81 43 71 77 33 32 26 
40 16 2147483647 91 46 23 11 59 25 50 31 
46 38 91 2147483647 71 60 79 100 4 85 76 
70 81 46 71 2147483647 46 24 29 53 18 80 
55 43 23 60 46 2147483647 53 8 25 40 16 
75 71 11 79 24 53 2147483647 92 66 8 70 
5 77 59 100 29 8 92 2147483647 66 45 56 
83 33 25 4 53 25 66 66 2147483647 31 63 
70 32 50 85 18 40 8 45 31 2147483647 71 
31 26 31 76 80 16 70 56 63 71 2147483647 
